30517
0 0 0 0 0 1 1 0 0 0 0 1 1 1 0 0 0 1 0 0 0 1 0 1 1 0 1 1 1 0 
27 6 21 27 21 12 21 27 27 28 26 28 13 13 28 11 13 13 27 27 27 24 5 24 23 27 27 17 26 5 6 26 26 21 27 6 13 13 24 21 27 26 6 26 13 26 13 21 28 17 24 24 24 21 13 6 11 26 27 11 26 17 11 13 13 11 5 17 28 12 11 12 6 26 23 23 13 23 13 24 23 17 26 11 26 13 6 5 27 11 28 6 11 11 5 13 27 6 17 28 28 21 12 27 26 24 26 24 27 13 26 26 27 12 12 13 28 11 17 13 26 11 17 6 26 21 21 11 26 17 28 24 11 13 23 26 13 23 28 23 12 27 11 11 11 5 24 21 27 11 24 17 23 17 23 11 5 21 23 23 23 27 23 24 5 24 5 6 23 21 5 23 28 17 6 5 24 23 6 23 5 21 21 6 12 23 28 23 17 21 21 21 6 6 12 12 11 21 17 6 
